(set-logic LIA)
(synth-fun next ((brake Int) (distance Int) (speed Int) (throttle Int) (ignition Bool) (time Int) ) Int
	((Start Int) (Var Int) (StartBool Bool))
	((Start Int (
				 1
				 4
				 6
				 (ite StartBool Start Start)))

	(Var Int (
			 0
			 1
			 2
			 4
			 17
			 24
			 672
			 1034
			 brake
			 distance
			 speed
			 throttle
			 time
			 (+ Var Var)						
			 (- Var Var)						
			 (* Var Var)))

	(StartBool Bool (
				 	 ignition
					(= Var Var)						
					(>= Var Var)						
					(<= Var Var)						
					(and StartBool StartBool)			
					(or  StartBool StartBool)				
					(not StartBool)))))

(constraint (= (next 0 0 0 0 true 546 ) 6))
(constraint (= (next 0 1 26 8 true 1831 ) 4))
(constraint (= (next 0 2 32 7 true 1346 ) 1))
(constraint (= (next 0 4 39 0 true 415 ) 6))

(check-synth)
